c t mc
c file mc2022_track1_166.cnf
p cnf 84 504
1 43 17 59 0
-1 43 -17 59 0
1 -43 17 -59 0
-1 -43 -17 -59 0
1 43 21 63 0
-1 43 -21 63 0
1 -43 21 -63 0
-1 -43 -21 -63 0
1 43 13 55 0
-1 43 -13 55 0
1 -43 13 -55 0
-1 -43 -13 -55 0
1 43 23 65 0
-1 43 -23 65 0
1 -43 23 -65 0
-1 -43 -23 -65 0
1 43 15 57 0
-1 43 -15 57 0
1 -43 15 -57 0
-1 -43 -15 -57 0
1 43 3 45 0
-1 43 -3 45 0
1 -43 3 -45 0
-1 -43 -3 -45 0
2 44 10 52 0
-2 44 -10 52 0
2 -44 10 -52 0
-2 -44 -10 -52 0
2 44 24 66 0
-2 44 -24 66 0
2 -44 24 -66 0
-2 -44 -24 -66 0
2 44 26 68 0
-2 44 -26 68 0
2 -44 26 -68 0
-2 -44 -26 -68 0
2 44 4 46 0
-2 44 -4 46 0
2 -44 4 -46 0
-2 -44 -4 -46 0
2 44 26 68 0
-2 44 -26 68 0
2 -44 26 -68 0
-2 -44 -26 -68 0
2 44 10 52 0
-2 44 -10 52 0
2 -44 10 -52 0
-2 -44 -10 -52 0
3 45 33 75 0
-3 45 -33 75 0
3 -45 33 -75 0
-3 -45 -33 -75 0
3 45 6 48 0
-3 45 -6 48 0
3 -45 6 -48 0
-3 -45 -6 -48 0
3 45 8 50 0
-3 45 -8 50 0
3 -45 8 -50 0
-3 -45 -8 -50 0
3 45 34 76 0
-3 45 -34 76 0
3 -45 34 -76 0
-3 -45 -34 -76 0
3 45 11 53 0
-3 45 -11 53 0
3 -45 11 -53 0
-3 -45 -11 -53 0
4 46 19 61 0
-4 46 -19 61 0
4 -46 19 -61 0
-4 -46 -19 -61 0
4 46 22 64 0
-4 46 -22 64 0
4 -46 22 -64 0
-4 -46 -22 -64 0
4 46 19 61 0
-4 46 -19 61 0
4 -46 19 -61 0
-4 -46 -19 -61 0
4 46 30 72 0
-4 46 -30 72 0
4 -46 30 -72 0
-4 -46 -30 -72 0
4 46 19 61 0
-4 46 -19 61 0
4 -46 19 -61 0
-4 -46 -19 -61 0
5 47 15 57 0
-5 47 -15 57 0
5 -47 15 -57 0
-5 -47 -15 -57 0
5 47 11 53 0
-5 47 -11 53 0
5 -47 11 -53 0
-5 -47 -11 -53 0
5 47 41 83 0
-5 47 -41 83 0
5 -47 41 -83 0
-5 -47 -41 -83 0
5 47 18 60 0
-5 47 -18 60 0
5 -47 18 -60 0
-5 -47 -18 -60 0
5 47 33 75 0
-5 47 -33 75 0
5 -47 33 -75 0
-5 -47 -33 -75 0
5 47 30 72 0
-5 47 -30 72 0
5 -47 30 -72 0
-5 -47 -30 -72 0
6 48 21 63 0
-6 48 -21 63 0
6 -48 21 -63 0
-6 -48 -21 -63 0
6 48 21 63 0
-6 48 -21 63 0
6 -48 21 -63 0
-6 -48 -21 -63 0
6 48 25 67 0
-6 48 -25 67 0
6 -48 25 -67 0
-6 -48 -25 -67 0
6 48 16 58 0
-6 48 -16 58 0
6 -48 16 -58 0
-6 -48 -16 -58 0
6 48 20 62 0
-6 48 -20 62 0
6 -48 20 -62 0
-6 -48 -20 -62 0
7 49 23 65 0
-7 49 -23 65 0
7 -49 23 -65 0
-7 -49 -23 -65 0
7 49 17 59 0
-7 49 -17 59 0
7 -49 17 -59 0
-7 -49 -17 -59 0
7 49 18 60 0
-7 49 -18 60 0
7 -49 18 -60 0
-7 -49 -18 -60 0
7 49 35 77 0
-7 49 -35 77 0
7 -49 35 -77 0
-7 -49 -35 -77 0
7 49 16 58 0
-7 49 -16 58 0
7 -49 16 -58 0
-7 -49 -16 -58 0
7 49 37 79 0
-7 49 -37 79 0
7 -49 37 -79 0
-7 -49 -37 -79 0
8 50 16 58 0
-8 50 -16 58 0
8 -50 16 -58 0
-8 -50 -16 -58 0
8 50 35 77 0
-8 50 -35 77 0
8 -50 35 -77 0
-8 -50 -35 -77 0
8 50 29 71 0
-8 50 -29 71 0
8 -50 29 -71 0
-8 -50 -29 -71 0
8 50 9 51 0
-8 50 -9 51 0
8 -50 9 -51 0
-8 -50 -9 -51 0
8 50 36 78 0
-8 50 -36 78 0
8 -50 36 -78 0
-8 -50 -36 -78 0
9 51 15 57 0
-9 51 -15 57 0
9 -51 15 -57 0
-9 -51 -15 -57 0
9 51 31 73 0
-9 51 -31 73 0
9 -51 31 -73 0
-9 -51 -31 -73 0
9 51 31 73 0
-9 51 -31 73 0
9 -51 31 -73 0
-9 -51 -31 -73 0
9 51 32 74 0
-9 51 -32 74 0
9 -51 32 -74 0
-9 -51 -32 -74 0
9 51 38 80 0
-9 51 -38 80 0
9 -51 38 -80 0
-9 -51 -38 -80 0
10 52 22 64 0
-10 52 -22 64 0
10 -52 22 -64 0
-10 -52 -22 -64 0
10 52 25 67 0
-10 52 -25 67 0
10 -52 25 -67 0
-10 -52 -25 -67 0
10 52 37 79 0
-10 52 -37 79 0
10 -52 37 -79 0
-10 -52 -37 -79 0
10 52 27 69 0
-10 52 -27 69 0
10 -52 27 -69 0
-10 -52 -27 -69 0
11 53 14 56 0
-11 53 -14 56 0
11 -53 14 -56 0
-11 -53 -14 -56 0
11 53 20 62 0
-11 53 -20 62 0
11 -53 20 -62 0
-11 -53 -20 -62 0
11 53 36 78 0
-11 53 -36 78 0
11 -53 36 -78 0
-11 -53 -36 -78 0
11 53 24 66 0
-11 53 -24 66 0
11 -53 24 -66 0
-11 -53 -24 -66 0
12 54 42 84 0
-12 54 -42 84 0
12 -54 42 -84 0
-12 -54 -42 -84 0
12 54 25 67 0
-12 54 -25 67 0
12 -54 25 -67 0
-12 -54 -25 -67 0
12 54 20 62 0
-12 54 -20 62 0
12 -54 20 -62 0
-12 -54 -20 -62 0
12 54 38 80 0
-12 54 -38 80 0
12 -54 38 -80 0
-12 -54 -38 -80 0
12 54 18 60 0
-12 54 -18 60 0
12 -54 18 -60 0
-12 -54 -18 -60 0
12 54 29 71 0
-12 54 -29 71 0
12 -54 29 -71 0
-12 -54 -29 -71 0
13 55 19 61 0
-13 55 -19 61 0
13 -55 19 -61 0
-13 -55 -19 -61 0
13 55 29 71 0
-13 55 -29 71 0
13 -55 29 -71 0
-13 -55 -29 -71 0
13 55 16 58 0
-13 55 -16 58 0
13 -55 16 -58 0
-13 -55 -16 -58 0
13 55 23 65 0
-13 55 -23 65 0
13 -55 23 -65 0
-13 -55 -23 -65 0
13 55 23 65 0
-13 55 -23 65 0
13 -55 23 -65 0
-13 -55 -23 -65 0
14 56 29 71 0
-14 56 -29 71 0
14 -56 29 -71 0
-14 -56 -29 -71 0
14 56 25 67 0
-14 56 -25 67 0
14 -56 25 -67 0
-14 -56 -25 -67 0
14 56 26 68 0
-14 56 -26 68 0
14 -56 26 -68 0
-14 -56 -26 -68 0
14 56 28 70 0
-14 56 -28 70 0
14 -56 28 -70 0
-14 -56 -28 -70 0
14 56 17 59 0
-14 56 -17 59 0
14 -56 17 -59 0
-14 -56 -17 -59 0
15 57 39 81 0
-15 57 -39 81 0
15 -57 39 -81 0
-15 -57 -39 -81 0
15 57 20 62 0
-15 57 -20 62 0
15 -57 20 -62 0
-15 -57 -20 -62 0
15 57 17 59 0
-15 57 -17 59 0
15 -57 17 -59 0
-15 -57 -17 -59 0
16 58 19 61 0
-16 58 -19 61 0
16 -58 19 -61 0
-16 -58 -19 -61 0
16 58 17 59 0
-16 58 -17 59 0
16 -58 17 -59 0
-16 -58 -17 -59 0
17 59 41 83 0
-17 59 -41 83 0
17 -59 41 -83 0
-17 -59 -41 -83 0
18 60 40 82 0
-18 60 -40 82 0
18 -60 40 -82 0
-18 -60 -40 -82 0
18 60 24 66 0
-18 60 -24 66 0
18 -60 24 -66 0
-18 -60 -24 -66 0
18 60 22 64 0
-18 60 -22 64 0
18 -60 22 -64 0
-18 -60 -22 -64 0
19 61 34 76 0
-19 61 -34 76 0
19 -61 34 -76 0
-19 -61 -34 -76 0
20 62 24 66 0
-20 62 -24 66 0
20 -62 24 -66 0
-20 -62 -24 -66 0
20 62 28 70 0
-20 62 -28 70 0
20 -62 28 -70 0
-20 -62 -28 -70 0
21 63 36 78 0
-21 63 -36 78 0
21 -63 36 -78 0
-21 -63 -36 -78 0
21 63 37 79 0
-21 63 -37 79 0
21 -63 37 -79 0
-21 -63 -37 -79 0
21 63 31 73 0
-21 63 -31 73 0
21 -63 31 -73 0
-21 -63 -31 -73 0
22 64 27 69 0
-22 64 -27 69 0
22 -64 27 -69 0
-22 -64 -27 -69 0
22 64 27 69 0
-22 64 -27 69 0
22 -64 27 -69 0
-22 -64 -27 -69 0
22 64 30 72 0
-22 64 -30 72 0
22 -64 30 -72 0
-22 -64 -30 -72 0
23 65 42 84 0
-23 65 -42 84 0
23 -65 42 -84 0
-23 -65 -42 -84 0
23 65 42 84 0
-23 65 -42 84 0
23 -65 42 -84 0
-23 -65 -42 -84 0
24 66 37 79 0
-24 66 -37 79 0
24 -66 37 -79 0
-24 -66 -37 -79 0
24 66 31 73 0
-24 66 -31 73 0
24 -66 31 -73 0
-24 -66 -31 -73 0
25 67 34 76 0
-25 67 -34 76 0
25 -67 34 -76 0
-25 -67 -34 -76 0
25 67 34 76 0
-25 67 -34 76 0
25 -67 34 -76 0
-25 -67 -34 -76 0
26 68 32 74 0
-26 68 -32 74 0
26 -68 32 -74 0
-26 -68 -32 -74 0
26 68 33 75 0
-26 68 -33 75 0
26 -68 33 -75 0
-26 -68 -33 -75 0
26 68 32 74 0
-26 68 -32 74 0
26 -68 32 -74 0
-26 -68 -32 -74 0
27 69 30 72 0
-27 69 -30 72 0
27 -69 30 -72 0
-27 -69 -30 -72 0
27 69 40 82 0
-27 69 -40 82 0
27 -69 40 -82 0
-27 -69 -40 -82 0
27 69 39 81 0
-27 69 -39 81 0
27 -69 39 -81 0
-27 -69 -39 -81 0
28 70 35 77 0
-28 70 -35 77 0
28 -70 35 -77 0
-28 -70 -35 -77 0
28 70 38 80 0
-28 70 -38 80 0
28 -70 38 -80 0
-28 -70 -38 -80 0
28 70 35 77 0
-28 70 -35 77 0
28 -70 35 -77 0
-28 -70 -35 -77 0
28 70 42 84 0
-28 70 -42 84 0
28 -70 42 -84 0
-28 -70 -42 -84 0
29 71 39 81 0
-29 71 -39 81 0
29 -71 39 -81 0
-29 -71 -39 -81 0
29 71 39 81 0
-29 71 -39 81 0
29 -71 39 -81 0
-29 -71 -39 -81 0
30 72 40 82 0
-30 72 -40 82 0
30 -72 40 -82 0
-30 -72 -40 -82 0
30 72 38 80 0
-30 72 -38 80 0
30 -72 38 -80 0
-30 -72 -38 -80 0
31 73 36 78 0
-31 73 -36 78 0
31 -73 36 -78 0
-31 -73 -36 -78 0
31 73 42 84 0
-31 73 -42 84 0
31 -73 42 -84 0
-31 -73 -42 -84 0
32 74 33 75 0
-32 74 -33 75 0
32 -74 33 -75 0
-32 -74 -33 -75 0
32 74 40 82 0
-32 74 -40 82 0
32 -74 40 -82 0
-32 -74 -40 -82 0
32 74 41 83 0
-32 74 -41 83 0
32 -74 41 -83 0
-32 -74 -41 -83 0
33 75 41 83 0
-33 75 -41 83 0
33 -75 41 -83 0
-33 -75 -41 -83 0
33 75 35 77 0
-33 75 -35 77 0
33 -75 35 -77 0
-33 -75 -35 -77 0
34 76 37 79 0
-34 76 -37 79 0
34 -76 37 -79 0
-34 -76 -37 -79 0
34 76 41 83 0
-34 76 -41 83 0
34 -76 41 -83 0
-34 -76 -41 -83 0
35 77 38 80 0
-35 77 -38 80 0
35 -77 38 -80 0
-35 -77 -38 -80 0
36 78 40 82 0
-36 78 -40 82 0
36 -78 40 -82 0
-36 -78 -40 -82 0
36 78 39 81 0
-36 78 -39 81 0
36 -78 39 -81 0
-36 -78 -39 -81 0
37 79 40 82 0
-37 79 -40 82 0
37 -79 40 -82 0
-37 -79 -40 -82 0
38 80 41 83 0
-38 80 -41 83 0
38 -80 41 -83 0
-38 -80 -41 -83 0
39 81 42 84 0
-39 81 -42 84 0
39 -81 42 -84 0
-39 -81 -42 -84 0
